(declare-datatype Position ((P0) (P1) (P2) (P3) (P4)))
(declare-const a Int)
(declare-const a_1 Int)
(declare-const a_2 Int)
(declare-const a_3 Int)
(declare-const a_4 Int)
(declare-const a_5 Int)
(declare-const a_6 Int)
(declare-const a_7 Int)
(declare-const a0 Position)
(declare-const a1 Position)
(declare-const a2 Position)
(declare-const a3 Position)
(declare-const a4 Position)
(declare-const a5 Position)
(declare-const a6 Position)
(declare-const a7 Position)
(declare-const a8 Position)
(declare-const a9 Position)
(declare-const c Int)
(declare-const c_1 Int)
(declare-const c_2 Int)
(declare-const c_3 Int)
(declare-const d0 Bool)
(declare-const d1 Bool)
(declare-const d2 Bool)
(declare-const d3 Bool)
(declare-const d4 Bool)
(declare-const d5 Bool)
(declare-const d6 Bool)
(declare-const d7 Bool)
(declare-const d8 Bool)
(declare-const d9 Bool)
(declare-const dir Bool)
(declare-const dir_1 Bool)
(declare-const dir_2 Bool)
(declare-const dir_3 Bool)
(declare-const dir_4 Bool)
(declare-const dir_5 Bool)
(declare-const dir_6 Bool)
(declare-const dir_7 Bool)
(declare-const dir_8 Bool)
(declare-const dir_9 Bool)
(declare-const dir_10 Bool)
(declare-const dir_11 Bool)
(declare-const dir_12 Bool)
(declare-const dir_13 Bool)
(declare-const dir_14 Bool)
(declare-const dir_15 Bool)
(declare-const dir_16 Bool)
(declare-const dir_17 Bool)
(declare-const dir_18 Bool)
(declare-const dir_19 Bool)
(declare-const dir_20 Bool)
(declare-const dir_21 Bool)
(declare-const dir_22 Bool)
(declare-const dir_23 Bool)
(declare-const dir_24 Bool)
(declare-const dir_25 Bool)
(declare-const dir_26 Bool)
(declare-const dir_27 Bool)
(declare-const dir_28 Bool)
(declare-const dir_29 Bool)
(declare-const dir_30 Bool)
(declare-const dir_31 Bool)
(declare-const dir_32 Bool)
(declare-const dir_33 Bool)
(declare-const dir_34 Bool)
(declare-const dir_35 Bool)
(declare-const dir_36 Bool)
(declare-const dir_37 Bool)
(declare-const dir_38 Bool)
(declare-const dir_39 Bool)
(declare-const pos Position)
(declare-const pos_1 Position)
(declare-const pos_2 Position)
(declare-const pos_3 Position)
(declare-const pos_4 Position)
(declare-const pos_5 Position)
(declare-const pos_6 Position)
(declare-const pos_7 Position)
(declare-const pos_8 Position)
(declare-const pos_9 Position)
(declare-const pos_10 Position)
(declare-const pos_11 Position)
(declare-const pos_12 Position)
(declare-const pos_13 Position)
(declare-const pos_14 Position)
(declare-const pos_15 Position)
(declare-const pos_16 Position)
(declare-const pos_17 Position)
(declare-const pos_18 Position)
(declare-const pos_19 Position)
(declare-const pos_20 Position)
(declare-const pos_21 Position)
(declare-const pos_22 Position)
(declare-const pos_23 Position)
(declare-const pos_24 Position)
(declare-const pos_25 Position)
(declare-const pos_26 Position)
(declare-const pos_27 Position)
(declare-const pos_28 Position)
(declare-const pos_29 Position)
(declare-const pos_30 Position)
(declare-const pos_31 Position)
(declare-const pos_32 Position)
(declare-const pos_33 Position)
(declare-const pos_34 Position)
(declare-const pos_35 Position)
(declare-const pos_36 Position)
(declare-const pos_37 Position)
(declare-const pos_38 Position)
(declare-const pos_39 Position)
(declare-const s1 Int)
(declare-const s2 Int)
(declare-const s3 Int)
(assert (>= a 0))
(assert (>= a_1 0))
(assert (>= a_2 0))
(assert (>= a_3 0))
(assert (>= a_4 0))
(assert (>= a_5 0))
(assert (>= a_6 0))
(assert (>= a_7 0))
(assert (>= c 0))
(assert (>= c_1 0))
(assert (>= c_2 0))
(assert (>= c_3 0))
(assert (>= s1 0))
(assert (>= s2 0))
(assert (>= s3 0))
(assert
 (and
  (= a_6
   (+ 0 (ite (= P0 P1) 1 0) (ite (= P0 P1) 1 0) (ite (= P0 P1) 1 0)
    (ite (= P0 P1) 1 0) (ite (= P0 P1) 1 0) (ite (= P0 P1) 1 0)
    (ite (= P0 P1) 1 0) (ite (= P0 P1) 1 0) (ite (= P0 P1) 1 0)
    (ite (= P0 P1) 1 0)))
  (= c_3
   (+ 0 (ite (= P0 P3) 1 0) (ite (= P0 P3) 1 0) (ite (= P0 P3) 1 0)
    (ite (= P0 P3) 1 0) (ite (= P0 P3) 1 0) (ite (= P0 P3) 1 0)
    (ite (= P0 P3) 1 0) (ite (= P0 P3) 1 0) (ite (= P0 P3) 1 0)
    (ite (= P0 P3) 1 0)))
  (= a_7
   (+ 0 (ite (= P0 P2) 1 0) (ite (= P0 P2) 1 0) (ite (= P0 P2) 1 0)
    (ite (= P0 P2) 1 0) (ite (= P0 P2) 1 0) (ite (= P0 P2) 1 0)
    (ite (= P0 P2) 1 0) (ite (= P0 P2) 1 0) (ite (= P0 P2) 1 0)
    (ite (= P0 P2) 1 0)))
  (=> (= P0 P1) (and (= pos_30 P4) dir_30))
  (=> (= P0 P2) (and (= pos_30 P3) dir_30))
  (=> (= P0 P3) (and (= pos_30 P4) dir_30)) (or (= pos_30 P1) (= pos_30 P2))
  dir_30 (=> (= pos_30 P1) (<= 0 0)) (=> (= pos_30 P2) (<= 0 0))
  (=> (= P0 P4) (and (or (= pos_30 P1) (= pos_30 P3)) (not dir_30)))
  (=> (and (= P0 P4) (= pos_30 P1)) (<= 0 0))
  (=> (and (= P0 P4) (= pos_30 P3)) (<= 0 0))
  (=> (= P0 P1) (and (= pos_34 P4) dir_34))
  (=> (= P0 P2) (and (= pos_34 P3) dir_34))
  (=> (= P0 P3) (and (= pos_34 P4) dir_34)) (or (= pos_34 P1) (= pos_34 P2))
  dir_34 (=> (= pos_34 P1) (<= 0 0)) (=> (= pos_34 P2) (<= 0 0))
  (=> (= P0 P4) (and (or (= pos_34 P1) (= pos_34 P3)) (not dir_34)))
  (=> (and (= P0 P4) (= pos_34 P1)) (<= 0 0))
  (=> (and (= P0 P4) (= pos_34 P3)) (<= 0 0))
  (=> (= P0 P1) (and (= pos_31 P4) dir_31))
  (=> (= P0 P2) (and (= pos_31 P3) dir_31))
  (=> (= P0 P3) (and (= pos_31 P4) dir_31)) (or (= pos_31 P1) (= pos_31 P2))
  dir_31 (=> (= pos_31 P1) (<= 0 0)) (=> (= pos_31 P2) (<= 0 0))
  (=> (= P0 P4) (and (or (= pos_31 P1) (= pos_31 P3)) (not dir_31)))
  (=> (and (= P0 P4) (= pos_31 P1)) (<= 0 0))
  (=> (and (= P0 P4) (= pos_31 P3)) (<= 0 0))
  (=> (= P0 P1) (and (= pos_32 P4) dir_32))
  (=> (= P0 P2) (and (= pos_32 P3) dir_32))
  (=> (= P0 P3) (and (= pos_32 P4) dir_32)) (or (= pos_32 P1) (= pos_32 P2))
  dir_32 (=> (= pos_32 P1) (<= 0 0)) (=> (= pos_32 P2) (<= 0 0))
  (=> (= P0 P4) (and (or (= pos_32 P1) (= pos_32 P3)) (not dir_32)))
  (=> (and (= P0 P4) (= pos_32 P1)) (<= 0 0))
  (=> (and (= P0 P4) (= pos_32 P3)) (<= 0 0))
  (=> (= P0 P1) (and (= pos_33 P4) dir_33))
  (=> (= P0 P2) (and (= pos_33 P3) dir_33))
  (=> (= P0 P3) (and (= pos_33 P4) dir_33)) (or (= pos_33 P1) (= pos_33 P2))
  dir_33 (=> (= pos_33 P1) (<= 0 0)) (=> (= pos_33 P2) (<= 0 0))
  (=> (= P0 P4) (and (or (= pos_33 P1) (= pos_33 P3)) (not dir_33)))
  (=> (and (= P0 P4) (= pos_33 P1)) (<= 0 0))
  (=> (and (= P0 P4) (= pos_33 P3)) (<= 0 0))
  (=> (= P0 P1) (and (= pos_35 P4) dir_35))
  (=> (= P0 P2) (and (= pos_35 P3) dir_35))
  (=> (= P0 P3) (and (= pos_35 P4) dir_35)) (or (= pos_35 P1) (= pos_35 P2))
  dir_35 (=> (= pos_35 P1) (<= 0 0)) (=> (= pos_35 P2) (<= 0 0))
  (=> (= P0 P4) (and (or (= pos_35 P1) (= pos_35 P3)) (not dir_35)))
  (=> (and (= P0 P4) (= pos_35 P1)) (<= 0 0))
  (=> (and (= P0 P4) (= pos_35 P3)) (<= 0 0))
  (=> (= P0 P1) (and (= pos_39 P4) dir_39))
  (=> (= P0 P2) (and (= pos_39 P3) dir_39))
  (=> (= P0 P3) (and (= pos_39 P4) dir_39)) (or (= pos_39 P1) (= pos_39 P2))
  dir_39 (=> (= pos_39 P1) (<= 0 0)) (=> (= pos_39 P2) (<= 0 0))
  (=> (= P0 P4) (and (or (= pos_39 P1) (= pos_39 P3)) (not dir_39)))
  (=> (and (= P0 P4) (= pos_39 P1)) (<= 0 0))
  (=> (and (= P0 P4) (= pos_39 P3)) (<= 0 0))
  (=> (= P0 P1) (and (= pos_36 P4) dir_36))
  (=> (= P0 P2) (and (= pos_36 P3) dir_36))
  (=> (= P0 P3) (and (= pos_36 P4) dir_36)) (or (= pos_36 P1) (= pos_36 P2))
  dir_36 (=> (= pos_36 P1) (<= 0 0)) (=> (= pos_36 P2) (<= 0 0))
  (=> (= P0 P4) (and (or (= pos_36 P1) (= pos_36 P3)) (not dir_36)))
  (=> (and (= P0 P4) (= pos_36 P1)) (<= 0 0))
  (=> (and (= P0 P4) (= pos_36 P3)) (<= 0 0))
  (=> (= P0 P1) (and (= pos_37 P4) dir_37))
  (=> (= P0 P2) (and (= pos_37 P3) dir_37))
  (=> (= P0 P3) (and (= pos_37 P4) dir_37)) (or (= pos_37 P1) (= pos_37 P2))
  dir_37 (=> (= pos_37 P1) (<= 0 0)) (=> (= pos_37 P2) (<= 0 0))
  (=> (= P0 P4) (and (or (= pos_37 P1) (= pos_37 P3)) (not dir_37)))
  (=> (and (= P0 P4) (= pos_37 P1)) (<= 0 0))
  (=> (and (= P0 P4) (= pos_37 P3)) (<= 0 0))
  (=> (= P0 P1) (and (= pos_38 P4) dir_38))
  (=> (= P0 P2) (and (= pos_38 P3) dir_38))
  (=> (= P0 P3) (and (= pos_38 P4) dir_38)) (or (= pos_38 P1) (= pos_38 P2))
  dir_38 (=> (= pos_38 P1) (<= 0 0)) (=> (= pos_38 P2) (<= 0 0))
  (=> (= P0 P4) (and (or (= pos_38 P1) (= pos_38 P3)) (not dir_38)))
  (=> (and (= P0 P4) (= pos_38 P1)) (<= 0 0))
  (=> (and (= P0 P4) (= pos_38 P3)) (<= 0 0))
  (= a_4
   (+ a_6 (ite (= pos_30 P1) 1 0) (ite (= pos_35 P1) 1 0)
    (ite (= pos_32 P1) 1 0) (ite (= pos_37 P1) 1 0) (ite (= pos_31 P1) 1 0)
    (ite (= pos_36 P1) 1 0) (ite (= pos_33 P1) 1 0) (ite (= pos_38 P1) 1 0)
    (ite (= pos_34 P1) 1 0) (ite (= pos_39 P1) 1 0)))
  (= c_2
   (+ c_3 (ite (= pos_30 P3) 1 0) (ite (= pos_35 P3) 1 0)
    (ite (= pos_32 P3) 1 0) (ite (= pos_37 P3) 1 0) (ite (= pos_31 P3) 1 0)
    (ite (= pos_36 P3) 1 0) (ite (= pos_33 P3) 1 0) (ite (= pos_38 P3) 1 0)
    (ite (= pos_34 P3) 1 0) (ite (= pos_39 P3) 1 0)))
  (= a_5
   (+ a_7 (ite (= pos_30 P2) 1 0) (ite (= pos_35 P2) 1 0)
    (ite (= pos_32 P2) 1 0) (ite (= pos_37 P2) 1 0) (ite (= pos_31 P2) 1 0)
    (ite (= pos_36 P2) 1 0) (ite (= pos_33 P2) 1 0) (ite (= pos_38 P2) 1 0)
    (ite (= pos_34 P2) 1 0) (ite (= pos_39 P2) 1 0)))
  (=> (= pos_30 P1) (and (= pos_20 (ite dir_30 P4 P0)) (iff dir_20 dir_30)))
  (=> (= pos_30 P2) (and (= pos_20 (ite dir_30 P3 P0)) (iff dir_20 dir_30)))
  (=> (= pos_30 P3) (and (= pos_20 (ite dir_30 P4 P2)) (iff dir_20 dir_30)))
  (=> (= pos_30 P0) (and (or (= pos_20 P1) (= pos_20 P2)) dir_20))
  (=> (and (= pos_30 P0) (= pos_20 P1)) (<= a_7 a_6))
  (=> (and (= pos_30 P0) (= pos_20 P2)) (<= a_6 a_7))
  (=> (= pos_30 P4) (and (or (= pos_20 P1) (= pos_20 P3)) (not dir_20)))
  (=> (and (= pos_30 P4) (= pos_20 P1)) (<= c_3 a_6))
  (=> (and (= pos_30 P4) (= pos_20 P3)) (<= a_6 c_3))
  (=> (= pos_34 P1) (and (= pos_24 (ite dir_34 P4 P0)) (iff dir_24 dir_34)))
  (=> (= pos_34 P2) (and (= pos_24 (ite dir_34 P3 P0)) (iff dir_24 dir_34)))
  (=> (= pos_34 P3) (and (= pos_24 (ite dir_34 P4 P2)) (iff dir_24 dir_34)))
  (=> (= pos_34 P0) (and (or (= pos_24 P1) (= pos_24 P2)) dir_24))
  (=> (and (= pos_34 P0) (= pos_24 P1)) (<= a_7 a_6))
  (=> (and (= pos_34 P0) (= pos_24 P2)) (<= a_6 a_7))
  (=> (= pos_34 P4) (and (or (= pos_24 P1) (= pos_24 P3)) (not dir_24)))
  (=> (and (= pos_34 P4) (= pos_24 P1)) (<= c_3 a_6))
  (=> (and (= pos_34 P4) (= pos_24 P3)) (<= a_6 c_3))
  (=> (= pos_31 P1) (and (= pos_21 (ite dir_31 P4 P0)) (iff dir_21 dir_31)))
  (=> (= pos_31 P2) (and (= pos_21 (ite dir_31 P3 P0)) (iff dir_21 dir_31)))
  (=> (= pos_31 P3) (and (= pos_21 (ite dir_31 P4 P2)) (iff dir_21 dir_31)))
  (=> (= pos_31 P0) (and (or (= pos_21 P1) (= pos_21 P2)) dir_21))
  (=> (and (= pos_31 P0) (= pos_21 P1)) (<= a_7 a_6))
  (=> (and (= pos_31 P0) (= pos_21 P2)) (<= a_6 a_7))
  (=> (= pos_31 P4) (and (or (= pos_21 P1) (= pos_21 P3)) (not dir_21)))
  (=> (and (= pos_31 P4) (= pos_21 P1)) (<= c_3 a_6))
  (=> (and (= pos_31 P4) (= pos_21 P3)) (<= a_6 c_3))
  (=> (= pos_32 P1) (and (= pos_22 (ite dir_32 P4 P0)) (iff dir_22 dir_32)))
  (=> (= pos_32 P2) (and (= pos_22 (ite dir_32 P3 P0)) (iff dir_22 dir_32)))
  (=> (= pos_32 P3) (and (= pos_22 (ite dir_32 P4 P2)) (iff dir_22 dir_32)))
  (=> (= pos_32 P0) (and (or (= pos_22 P1) (= pos_22 P2)) dir_22))
  (=> (and (= pos_32 P0) (= pos_22 P1)) (<= a_7 a_6))
  (=> (and (= pos_32 P0) (= pos_22 P2)) (<= a_6 a_7))
  (=> (= pos_32 P4) (and (or (= pos_22 P1) (= pos_22 P3)) (not dir_22)))
  (=> (and (= pos_32 P4) (= pos_22 P1)) (<= c_3 a_6))
  (=> (and (= pos_32 P4) (= pos_22 P3)) (<= a_6 c_3))
  (=> (= pos_33 P1) (and (= pos_23 (ite dir_33 P4 P0)) (iff dir_23 dir_33)))
  (=> (= pos_33 P2) (and (= pos_23 (ite dir_33 P3 P0)) (iff dir_23 dir_33)))
  (=> (= pos_33 P3) (and (= pos_23 (ite dir_33 P4 P2)) (iff dir_23 dir_33)))
  (=> (= pos_33 P0) (and (or (= pos_23 P1) (= pos_23 P2)) dir_23))
  (=> (and (= pos_33 P0) (= pos_23 P1)) (<= a_7 a_6))
  (=> (and (= pos_33 P0) (= pos_23 P2)) (<= a_6 a_7))
  (=> (= pos_33 P4) (and (or (= pos_23 P1) (= pos_23 P3)) (not dir_23)))
  (=> (and (= pos_33 P4) (= pos_23 P1)) (<= c_3 a_6))
  (=> (and (= pos_33 P4) (= pos_23 P3)) (<= a_6 c_3))
  (=> (= pos_35 P1) (and (= pos_25 (ite dir_35 P4 P0)) (iff dir_25 dir_35)))
  (=> (= pos_35 P2) (and (= pos_25 (ite dir_35 P3 P0)) (iff dir_25 dir_35)))
  (=> (= pos_35 P3) (and (= pos_25 (ite dir_35 P4 P2)) (iff dir_25 dir_35)))
  (=> (= pos_35 P0) (and (or (= pos_25 P1) (= pos_25 P2)) dir_25))
  (=> (and (= pos_35 P0) (= pos_25 P1)) (<= a_7 a_6))
  (=> (and (= pos_35 P0) (= pos_25 P2)) (<= a_6 a_7))
  (=> (= pos_35 P4) (and (or (= pos_25 P1) (= pos_25 P3)) (not dir_25)))
  (=> (and (= pos_35 P4) (= pos_25 P1)) (<= c_3 a_6))
  (=> (and (= pos_35 P4) (= pos_25 P3)) (<= a_6 c_3))
  (=> (= pos_39 P1) (and (= pos_29 (ite dir_39 P4 P0)) (iff dir_29 dir_39)))
  (=> (= pos_39 P2) (and (= pos_29 (ite dir_39 P3 P0)) (iff dir_29 dir_39)))
  (=> (= pos_39 P3) (and (= pos_29 (ite dir_39 P4 P2)) (iff dir_29 dir_39)))
  (=> (= pos_39 P0) (and (or (= pos_29 P1) (= pos_29 P2)) dir_29))
  (=> (and (= pos_39 P0) (= pos_29 P1)) (<= a_7 a_6))
  (=> (and (= pos_39 P0) (= pos_29 P2)) (<= a_6 a_7))
  (=> (= pos_39 P4) (and (or (= pos_29 P1) (= pos_29 P3)) (not dir_29)))
  (=> (and (= pos_39 P4) (= pos_29 P1)) (<= c_3 a_6))
  (=> (and (= pos_39 P4) (= pos_29 P3)) (<= a_6 c_3))
  (=> (= pos_36 P1) (and (= pos_26 (ite dir_36 P4 P0)) (iff dir_26 dir_36)))
  (=> (= pos_36 P2) (and (= pos_26 (ite dir_36 P3 P0)) (iff dir_26 dir_36)))
  (=> (= pos_36 P3) (and (= pos_26 (ite dir_36 P4 P2)) (iff dir_26 dir_36)))
  (=> (= pos_36 P0) (and (or (= pos_26 P1) (= pos_26 P2)) dir_26))
  (=> (and (= pos_36 P0) (= pos_26 P1)) (<= a_7 a_6))
  (=> (and (= pos_36 P0) (= pos_26 P2)) (<= a_6 a_7))
  (=> (= pos_36 P4) (and (or (= pos_26 P1) (= pos_26 P3)) (not dir_26)))
  (=> (and (= pos_36 P4) (= pos_26 P1)) (<= c_3 a_6))
  (=> (and (= pos_36 P4) (= pos_26 P3)) (<= a_6 c_3))
  (=> (= pos_37 P1) (and (= pos_27 (ite dir_37 P4 P0)) (iff dir_27 dir_37)))
  (=> (= pos_37 P2) (and (= pos_27 (ite dir_37 P3 P0)) (iff dir_27 dir_37)))
  (=> (= pos_37 P3) (and (= pos_27 (ite dir_37 P4 P2)) (iff dir_27 dir_37)))
  (=> (= pos_37 P0) (and (or (= pos_27 P1) (= pos_27 P2)) dir_27))
  (=> (and (= pos_37 P0) (= pos_27 P1)) (<= a_7 a_6))
  (=> (and (= pos_37 P0) (= pos_27 P2)) (<= a_6 a_7))
  (=> (= pos_37 P4) (and (or (= pos_27 P1) (= pos_27 P3)) (not dir_27)))
  (=> (and (= pos_37 P4) (= pos_27 P1)) (<= c_3 a_6))
  (=> (and (= pos_37 P4) (= pos_27 P3)) (<= a_6 c_3))
  (=> (= pos_38 P1) (and (= pos_28 (ite dir_38 P4 P0)) (iff dir_28 dir_38)))
  (=> (= pos_38 P2) (and (= pos_28 (ite dir_38 P3 P0)) (iff dir_28 dir_38)))
  (=> (= pos_38 P3) (and (= pos_28 (ite dir_38 P4 P2)) (iff dir_28 dir_38)))
  (=> (= pos_38 P0) (and (or (= pos_28 P1) (= pos_28 P2)) dir_28))
  (=> (and (= pos_38 P0) (= pos_28 P1)) (<= a_7 a_6))
  (=> (and (= pos_38 P0) (= pos_28 P2)) (<= a_6 a_7))
  (=> (= pos_38 P4) (and (or (= pos_28 P1) (= pos_28 P3)) (not dir_28)))
  (=> (and (= pos_38 P4) (= pos_28 P1)) (<= c_3 a_6))
  (=> (and (= pos_38 P4) (= pos_28 P3)) (<= a_6 c_3))
  (= a_2
   (+ a_4 (ite (= pos_20 P1) 1 0) (ite (= pos_25 P1) 1 0)
    (ite (= pos_22 P1) 1 0) (ite (= pos_27 P1) 1 0) (ite (= pos_21 P1) 1 0)
    (ite (= pos_26 P1) 1 0) (ite (= pos_23 P1) 1 0) (ite (= pos_28 P1) 1 0)
    (ite (= pos_24 P1) 1 0) (ite (= pos_29 P1) 1 0)))
  (= c_1
   (+ c_2 (ite (= pos_20 P3) 1 0) (ite (= pos_25 P3) 1 0)
    (ite (= pos_22 P3) 1 0) (ite (= pos_27 P3) 1 0) (ite (= pos_21 P3) 1 0)
    (ite (= pos_26 P3) 1 0) (ite (= pos_23 P3) 1 0) (ite (= pos_28 P3) 1 0)
    (ite (= pos_24 P3) 1 0) (ite (= pos_29 P3) 1 0)))
  (= a_3
   (+ a_5 (ite (= pos_20 P2) 1 0) (ite (= pos_25 P2) 1 0)
    (ite (= pos_22 P2) 1 0) (ite (= pos_27 P2) 1 0) (ite (= pos_21 P2) 1 0)
    (ite (= pos_26 P2) 1 0) (ite (= pos_23 P2) 1 0) (ite (= pos_28 P2) 1 0)
    (ite (= pos_24 P2) 1 0) (ite (= pos_29 P2) 1 0)))
  (=> (= pos_20 P1) (and (= pos_10 (ite dir_20 P4 P0)) (iff dir_10 dir_20)))
  (=> (= pos_20 P2) (and (= pos_10 (ite dir_20 P3 P0)) (iff dir_10 dir_20)))
  (=> (= pos_20 P3) (and (= pos_10 (ite dir_20 P4 P2)) (iff dir_10 dir_20)))
  (=> (= pos_20 P0) (and (or (= pos_10 P1) (= pos_10 P2)) dir_10))
  (=> (and (= pos_20 P0) (= pos_10 P1)) (<= a_5 a_4))
  (=> (and (= pos_20 P0) (= pos_10 P2)) (<= a_4 a_5))
  (=> (= pos_20 P4) (and (or (= pos_10 P1) (= pos_10 P3)) (not dir_10)))
  (=> (and (= pos_20 P4) (= pos_10 P1)) (<= c_2 a_4))
  (=> (and (= pos_20 P4) (= pos_10 P3)) (<= a_4 c_2))
  (=> (= pos_24 P1) (and (= pos_14 (ite dir_24 P4 P0)) (iff dir_14 dir_24)))
  (=> (= pos_24 P2) (and (= pos_14 (ite dir_24 P3 P0)) (iff dir_14 dir_24)))
  (=> (= pos_24 P3) (and (= pos_14 (ite dir_24 P4 P2)) (iff dir_14 dir_24)))
  (=> (= pos_24 P0) (and (or (= pos_14 P1) (= pos_14 P2)) dir_14))
  (=> (and (= pos_24 P0) (= pos_14 P1)) (<= a_5 a_4))
  (=> (and (= pos_24 P0) (= pos_14 P2)) (<= a_4 a_5))
  (=> (= pos_24 P4) (and (or (= pos_14 P1) (= pos_14 P3)) (not dir_14)))
  (=> (and (= pos_24 P4) (= pos_14 P1)) (<= c_2 a_4))
  (=> (and (= pos_24 P4) (= pos_14 P3)) (<= a_4 c_2))
  (=> (= pos_21 P1) (and (= pos_11 (ite dir_21 P4 P0)) (iff dir_11 dir_21)))
  (=> (= pos_21 P2) (and (= pos_11 (ite dir_21 P3 P0)) (iff dir_11 dir_21)))
  (=> (= pos_21 P3) (and (= pos_11 (ite dir_21 P4 P2)) (iff dir_11 dir_21)))
  (=> (= pos_21 P0) (and (or (= pos_11 P1) (= pos_11 P2)) dir_11))
  (=> (and (= pos_21 P0) (= pos_11 P1)) (<= a_5 a_4))
  (=> (and (= pos_21 P0) (= pos_11 P2)) (<= a_4 a_5))
  (=> (= pos_21 P4) (and (or (= pos_11 P1) (= pos_11 P3)) (not dir_11)))
  (=> (and (= pos_21 P4) (= pos_11 P1)) (<= c_2 a_4))
  (=> (and (= pos_21 P4) (= pos_11 P3)) (<= a_4 c_2))
  (=> (= pos_22 P1) (and (= pos_12 (ite dir_22 P4 P0)) (iff dir_12 dir_22)))
  (=> (= pos_22 P2) (and (= pos_12 (ite dir_22 P3 P0)) (iff dir_12 dir_22)))
  (=> (= pos_22 P3) (and (= pos_12 (ite dir_22 P4 P2)) (iff dir_12 dir_22)))
  (=> (= pos_22 P0) (and (or (= pos_12 P1) (= pos_12 P2)) dir_12))
  (=> (and (= pos_22 P0) (= pos_12 P1)) (<= a_5 a_4))
  (=> (and (= pos_22 P0) (= pos_12 P2)) (<= a_4 a_5))
  (=> (= pos_22 P4) (and (or (= pos_12 P1) (= pos_12 P3)) (not dir_12)))
  (=> (and (= pos_22 P4) (= pos_12 P1)) (<= c_2 a_4))
  (=> (and (= pos_22 P4) (= pos_12 P3)) (<= a_4 c_2))
  (=> (= pos_23 P1) (and (= pos_13 (ite dir_23 P4 P0)) (iff dir_13 dir_23)))
  (=> (= pos_23 P2) (and (= pos_13 (ite dir_23 P3 P0)) (iff dir_13 dir_23)))
  (=> (= pos_23 P3) (and (= pos_13 (ite dir_23 P4 P2)) (iff dir_13 dir_23)))
  (=> (= pos_23 P0) (and (or (= pos_13 P1) (= pos_13 P2)) dir_13))
  (=> (and (= pos_23 P0) (= pos_13 P1)) (<= a_5 a_4))
  (=> (and (= pos_23 P0) (= pos_13 P2)) (<= a_4 a_5))
  (=> (= pos_23 P4) (and (or (= pos_13 P1) (= pos_13 P3)) (not dir_13)))
  (=> (and (= pos_23 P4) (= pos_13 P1)) (<= c_2 a_4))
  (=> (and (= pos_23 P4) (= pos_13 P3)) (<= a_4 c_2))
  (=> (= pos_25 P1) (and (= pos_15 (ite dir_25 P4 P0)) (iff dir_15 dir_25)))
  (=> (= pos_25 P2) (and (= pos_15 (ite dir_25 P3 P0)) (iff dir_15 dir_25)))
  (=> (= pos_25 P3) (and (= pos_15 (ite dir_25 P4 P2)) (iff dir_15 dir_25)))
  (=> (= pos_25 P0) (and (or (= pos_15 P1) (= pos_15 P2)) dir_15))
  (=> (and (= pos_25 P0) (= pos_15 P1)) (<= a_5 a_4))
  (=> (and (= pos_25 P0) (= pos_15 P2)) (<= a_4 a_5))
  (=> (= pos_25 P4) (and (or (= pos_15 P1) (= pos_15 P3)) (not dir_15)))
  (=> (and (= pos_25 P4) (= pos_15 P1)) (<= c_2 a_4))
  (=> (and (= pos_25 P4) (= pos_15 P3)) (<= a_4 c_2))
  (=> (= pos_29 P1) (and (= pos_19 (ite dir_29 P4 P0)) (iff dir_19 dir_29)))
  (=> (= pos_29 P2) (and (= pos_19 (ite dir_29 P3 P0)) (iff dir_19 dir_29)))
  (=> (= pos_29 P3) (and (= pos_19 (ite dir_29 P4 P2)) (iff dir_19 dir_29)))
  (=> (= pos_29 P0) (and (or (= pos_19 P1) (= pos_19 P2)) dir_19))
  (=> (and (= pos_29 P0) (= pos_19 P1)) (<= a_5 a_4))
  (=> (and (= pos_29 P0) (= pos_19 P2)) (<= a_4 a_5))
  (=> (= pos_29 P4) (and (or (= pos_19 P1) (= pos_19 P3)) (not dir_19)))
  (=> (and (= pos_29 P4) (= pos_19 P1)) (<= c_2 a_4))
  (=> (and (= pos_29 P4) (= pos_19 P3)) (<= a_4 c_2))
  (=> (= pos_26 P1) (and (= pos_16 (ite dir_26 P4 P0)) (iff dir_16 dir_26)))
  (=> (= pos_26 P2) (and (= pos_16 (ite dir_26 P3 P0)) (iff dir_16 dir_26)))
  (=> (= pos_26 P3) (and (= pos_16 (ite dir_26 P4 P2)) (iff dir_16 dir_26)))
  (=> (= pos_26 P0) (and (or (= pos_16 P1) (= pos_16 P2)) dir_16))
  (=> (and (= pos_26 P0) (= pos_16 P1)) (<= a_5 a_4))
  (=> (and (= pos_26 P0) (= pos_16 P2)) (<= a_4 a_5))
  (=> (= pos_26 P4) (and (or (= pos_16 P1) (= pos_16 P3)) (not dir_16)))
  (=> (and (= pos_26 P4) (= pos_16 P1)) (<= c_2 a_4))
  (=> (and (= pos_26 P4) (= pos_16 P3)) (<= a_4 c_2))
  (=> (= pos_27 P1) (and (= pos_17 (ite dir_27 P4 P0)) (iff dir_17 dir_27)))
  (=> (= pos_27 P2) (and (= pos_17 (ite dir_27 P3 P0)) (iff dir_17 dir_27)))
  (=> (= pos_27 P3) (and (= pos_17 (ite dir_27 P4 P2)) (iff dir_17 dir_27)))
  (=> (= pos_27 P0) (and (or (= pos_17 P1) (= pos_17 P2)) dir_17))
  (=> (and (= pos_27 P0) (= pos_17 P1)) (<= a_5 a_4))
  (=> (and (= pos_27 P0) (= pos_17 P2)) (<= a_4 a_5))
  (=> (= pos_27 P4) (and (or (= pos_17 P1) (= pos_17 P3)) (not dir_17)))
  (=> (and (= pos_27 P4) (= pos_17 P1)) (<= c_2 a_4))
  (=> (and (= pos_27 P4) (= pos_17 P3)) (<= a_4 c_2))
  (=> (= pos_28 P1) (and (= pos_18 (ite dir_28 P4 P0)) (iff dir_18 dir_28)))
  (=> (= pos_28 P2) (and (= pos_18 (ite dir_28 P3 P0)) (iff dir_18 dir_28)))
  (=> (= pos_28 P3) (and (= pos_18 (ite dir_28 P4 P2)) (iff dir_18 dir_28)))
  (=> (= pos_28 P0) (and (or (= pos_18 P1) (= pos_18 P2)) dir_18))
  (=> (and (= pos_28 P0) (= pos_18 P1)) (<= a_5 a_4))
  (=> (and (= pos_28 P0) (= pos_18 P2)) (<= a_4 a_5))
  (=> (= pos_28 P4) (and (or (= pos_18 P1) (= pos_18 P3)) (not dir_18)))
  (=> (and (= pos_28 P4) (= pos_18 P1)) (<= c_2 a_4))
  (=> (and (= pos_28 P4) (= pos_18 P3)) (<= a_4 c_2))
  (= a
   (+ a_2 (ite (= pos_10 P1) 1 0) (ite (= pos_15 P1) 1 0)
    (ite (= pos_12 P1) 1 0) (ite (= pos_17 P1) 1 0) (ite (= pos_11 P1) 1 0)
    (ite (= pos_16 P1) 1 0) (ite (= pos_13 P1) 1 0) (ite (= pos_18 P1) 1 0)
    (ite (= pos_14 P1) 1 0) (ite (= pos_19 P1) 1 0)))
  (= c
   (+ c_1 (ite (= pos_10 P3) 1 0) (ite (= pos_15 P3) 1 0)
    (ite (= pos_12 P3) 1 0) (ite (= pos_17 P3) 1 0) (ite (= pos_11 P3) 1 0)
    (ite (= pos_16 P3) 1 0) (ite (= pos_13 P3) 1 0) (ite (= pos_18 P3) 1 0)
    (ite (= pos_14 P3) 1 0) (ite (= pos_19 P3) 1 0)))
  (= a_1
   (+ a_3 (ite (= pos_10 P2) 1 0) (ite (= pos_15 P2) 1 0)
    (ite (= pos_12 P2) 1 0) (ite (= pos_17 P2) 1 0) (ite (= pos_11 P2) 1 0)
    (ite (= pos_16 P2) 1 0) (ite (= pos_13 P2) 1 0) (ite (= pos_18 P2) 1 0)
    (ite (= pos_14 P2) 1 0) (ite (= pos_19 P2) 1 0)))
  (=> (= pos_10 P1) (and (= pos (ite dir_10 P4 P0)) (iff dir dir_10)))
  (=> (= pos_10 P2) (and (= pos (ite dir_10 P3 P0)) (iff dir dir_10)))
  (=> (= pos_10 P3) (and (= pos (ite dir_10 P4 P2)) (iff dir dir_10)))
  (=> (= pos_10 P0) (and (or (= pos P1) (= pos P2)) dir))
  (=> (and (= pos_10 P0) (= pos P1)) (<= a_3 a_2))
  (=> (and (= pos_10 P0) (= pos P2)) (<= a_2 a_3))
  (=> (= pos_10 P4) (and (or (= pos P1) (= pos P3)) (not dir)))
  (=> (and (= pos_10 P4) (= pos P1)) (<= c_1 a_2))
  (=> (and (= pos_10 P4) (= pos P3)) (<= a_2 c_1))
  (=> (= pos_14 P1) (and (= pos_4 (ite dir_14 P4 P0)) (iff dir_4 dir_14)))
  (=> (= pos_14 P2) (and (= pos_4 (ite dir_14 P3 P0)) (iff dir_4 dir_14)))
  (=> (= pos_14 P3) (and (= pos_4 (ite dir_14 P4 P2)) (iff dir_4 dir_14)))
  (=> (= pos_14 P0) (and (or (= pos_4 P1) (= pos_4 P2)) dir_4))
  (=> (and (= pos_14 P0) (= pos_4 P1)) (<= a_3 a_2))
  (=> (and (= pos_14 P0) (= pos_4 P2)) (<= a_2 a_3))
  (=> (= pos_14 P4) (and (or (= pos_4 P1) (= pos_4 P3)) (not dir_4)))
  (=> (and (= pos_14 P4) (= pos_4 P1)) (<= c_1 a_2))
  (=> (and (= pos_14 P4) (= pos_4 P3)) (<= a_2 c_1))
  (=> (= pos_11 P1) (and (= pos_1 (ite dir_11 P4 P0)) (iff dir_1 dir_11)))
  (=> (= pos_11 P2) (and (= pos_1 (ite dir_11 P3 P0)) (iff dir_1 dir_11)))
  (=> (= pos_11 P3) (and (= pos_1 (ite dir_11 P4 P2)) (iff dir_1 dir_11)))
  (=> (= pos_11 P0) (and (or (= pos_1 P1) (= pos_1 P2)) dir_1))
  (=> (and (= pos_11 P0) (= pos_1 P1)) (<= a_3 a_2))
  (=> (and (= pos_11 P0) (= pos_1 P2)) (<= a_2 a_3))
  (=> (= pos_11 P4) (and (or (= pos_1 P1) (= pos_1 P3)) (not dir_1)))
  (=> (and (= pos_11 P4) (= pos_1 P1)) (<= c_1 a_2))
  (=> (and (= pos_11 P4) (= pos_1 P3)) (<= a_2 c_1))
  (=> (= pos_12 P1) (and (= pos_2 (ite dir_12 P4 P0)) (iff dir_2 dir_12)))
  (=> (= pos_12 P2) (and (= pos_2 (ite dir_12 P3 P0)) (iff dir_2 dir_12)))
  (=> (= pos_12 P3) (and (= pos_2 (ite dir_12 P4 P2)) (iff dir_2 dir_12)))
  (=> (= pos_12 P0) (and (or (= pos_2 P1) (= pos_2 P2)) dir_2))
  (=> (and (= pos_12 P0) (= pos_2 P1)) (<= a_3 a_2))
  (=> (and (= pos_12 P0) (= pos_2 P2)) (<= a_2 a_3))
  (=> (= pos_12 P4) (and (or (= pos_2 P1) (= pos_2 P3)) (not dir_2)))
  (=> (and (= pos_12 P4) (= pos_2 P1)) (<= c_1 a_2))
  (=> (and (= pos_12 P4) (= pos_2 P3)) (<= a_2 c_1))
  (=> (= pos_13 P1) (and (= pos_3 (ite dir_13 P4 P0)) (iff dir_3 dir_13)))
  (=> (= pos_13 P2) (and (= pos_3 (ite dir_13 P3 P0)) (iff dir_3 dir_13)))
  (=> (= pos_13 P3) (and (= pos_3 (ite dir_13 P4 P2)) (iff dir_3 dir_13)))
  (=> (= pos_13 P0) (and (or (= pos_3 P1) (= pos_3 P2)) dir_3))
  (=> (and (= pos_13 P0) (= pos_3 P1)) (<= a_3 a_2))
  (=> (and (= pos_13 P0) (= pos_3 P2)) (<= a_2 a_3))
  (=> (= pos_13 P4) (and (or (= pos_3 P1) (= pos_3 P3)) (not dir_3)))
  (=> (and (= pos_13 P4) (= pos_3 P1)) (<= c_1 a_2))
  (=> (and (= pos_13 P4) (= pos_3 P3)) (<= a_2 c_1))
  (=> (= pos_15 P1) (and (= pos_5 (ite dir_15 P4 P0)) (iff dir_5 dir_15)))
  (=> (= pos_15 P2) (and (= pos_5 (ite dir_15 P3 P0)) (iff dir_5 dir_15)))
  (=> (= pos_15 P3) (and (= pos_5 (ite dir_15 P4 P2)) (iff dir_5 dir_15)))
  (=> (= pos_15 P0) (and (or (= pos_5 P1) (= pos_5 P2)) dir_5))
  (=> (and (= pos_15 P0) (= pos_5 P1)) (<= a_3 a_2))
  (=> (and (= pos_15 P0) (= pos_5 P2)) (<= a_2 a_3))
  (=> (= pos_15 P4) (and (or (= pos_5 P1) (= pos_5 P3)) (not dir_5)))
  (=> (and (= pos_15 P4) (= pos_5 P1)) (<= c_1 a_2))
  (=> (and (= pos_15 P4) (= pos_5 P3)) (<= a_2 c_1))
  (=> (= pos_19 P1) (and (= pos_9 (ite dir_19 P4 P0)) (iff dir_9 dir_19)))
  (=> (= pos_19 P2) (and (= pos_9 (ite dir_19 P3 P0)) (iff dir_9 dir_19)))
  (=> (= pos_19 P3) (and (= pos_9 (ite dir_19 P4 P2)) (iff dir_9 dir_19)))
  (=> (= pos_19 P0) (and (or (= pos_9 P1) (= pos_9 P2)) dir_9))
  (=> (and (= pos_19 P0) (= pos_9 P1)) (<= a_3 a_2))
  (=> (and (= pos_19 P0) (= pos_9 P2)) (<= a_2 a_3))
  (=> (= pos_19 P4) (and (or (= pos_9 P1) (= pos_9 P3)) (not dir_9)))
  (=> (and (= pos_19 P4) (= pos_9 P1)) (<= c_1 a_2))
  (=> (and (= pos_19 P4) (= pos_9 P3)) (<= a_2 c_1))
  (=> (= pos_16 P1) (and (= pos_6 (ite dir_16 P4 P0)) (iff dir_6 dir_16)))
  (=> (= pos_16 P2) (and (= pos_6 (ite dir_16 P3 P0)) (iff dir_6 dir_16)))
  (=> (= pos_16 P3) (and (= pos_6 (ite dir_16 P4 P2)) (iff dir_6 dir_16)))
  (=> (= pos_16 P0) (and (or (= pos_6 P1) (= pos_6 P2)) dir_6))
  (=> (and (= pos_16 P0) (= pos_6 P1)) (<= a_3 a_2))
  (=> (and (= pos_16 P0) (= pos_6 P2)) (<= a_2 a_3))
  (=> (= pos_16 P4) (and (or (= pos_6 P1) (= pos_6 P3)) (not dir_6)))
  (=> (and (= pos_16 P4) (= pos_6 P1)) (<= c_1 a_2))
  (=> (and (= pos_16 P4) (= pos_6 P3)) (<= a_2 c_1))
  (=> (= pos_17 P1) (and (= pos_7 (ite dir_17 P4 P0)) (iff dir_7 dir_17)))
  (=> (= pos_17 P2) (and (= pos_7 (ite dir_17 P3 P0)) (iff dir_7 dir_17)))
  (=> (= pos_17 P3) (and (= pos_7 (ite dir_17 P4 P2)) (iff dir_7 dir_17)))
  (=> (= pos_17 P0) (and (or (= pos_7 P1) (= pos_7 P2)) dir_7))
  (=> (and (= pos_17 P0) (= pos_7 P1)) (<= a_3 a_2))
  (=> (and (= pos_17 P0) (= pos_7 P2)) (<= a_2 a_3))
  (=> (= pos_17 P4) (and (or (= pos_7 P1) (= pos_7 P3)) (not dir_7)))
  (=> (and (= pos_17 P4) (= pos_7 P1)) (<= c_1 a_2))
  (=> (and (= pos_17 P4) (= pos_7 P3)) (<= a_2 c_1))
  (=> (= pos_18 P1) (and (= pos_8 (ite dir_18 P4 P0)) (iff dir_8 dir_18)))
  (=> (= pos_18 P2) (and (= pos_8 (ite dir_18 P3 P0)) (iff dir_8 dir_18)))
  (=> (= pos_18 P3) (and (= pos_8 (ite dir_18 P4 P2)) (iff dir_8 dir_18)))
  (=> (= pos_18 P0) (and (or (= pos_8 P1) (= pos_8 P2)) dir_8))
  (=> (and (= pos_18 P0) (= pos_8 P1)) (<= a_3 a_2))
  (=> (and (= pos_18 P0) (= pos_8 P2)) (<= a_2 a_3))
  (=> (= pos_18 P4) (and (or (= pos_8 P1) (= pos_8 P3)) (not dir_8)))
  (=> (and (= pos_18 P4) (= pos_8 P1)) (<= c_1 a_2))
  (=> (and (= pos_18 P4) (= pos_8 P3)) (<= a_2 c_1))
  (= s1
   (+ a (ite (= pos P1) 1 0) (ite (= pos_5 P1) 1 0) (ite (= pos_2 P1) 1 0)
    (ite (= pos_7 P1) 1 0) (ite (= pos_1 P1) 1 0) (ite (= pos_6 P1) 1 0)
    (ite (= pos_3 P1) 1 0) (ite (= pos_8 P1) 1 0) (ite (= pos_4 P1) 1 0)
    (ite (= pos_9 P1) 1 0)))
  (= s3
   (+ c (ite (= pos P3) 1 0) (ite (= pos_5 P3) 1 0) (ite (= pos_2 P3) 1 0)
    (ite (= pos_7 P3) 1 0) (ite (= pos_1 P3) 1 0) (ite (= pos_6 P3) 1 0)
    (ite (= pos_3 P3) 1 0) (ite (= pos_8 P3) 1 0) (ite (= pos_4 P3) 1 0)
    (ite (= pos_9 P3) 1 0)))
  (= s2
   (+ a_1 (ite (= pos P2) 1 0) (ite (= pos_5 P2) 1 0) (ite (= pos_2 P2) 1 0)
    (ite (= pos_7 P2) 1 0) (ite (= pos_1 P2) 1 0) (ite (= pos_6 P2) 1 0)
    (ite (= pos_3 P2) 1 0) (ite (= pos_8 P2) 1 0) (ite (= pos_4 P2) 1 0)
    (ite (= pos_9 P2) 1 0)))
  (=> (= pos P1) (and (= a0 (ite dir P4 P0)) (iff d0 dir)))
  (=> (= pos P2) (and (= a0 (ite dir P3 P0)) (iff d0 dir)))
  (=> (= pos P3) (and (= a0 (ite dir P4 P2)) (iff d0 dir)))
  (=> (= pos P0) (and (or (= a0 P1) (= a0 P2)) d0))
  (=> (and (= pos P0) (= a0 P1)) (<= a_1 a))
  (=> (and (= pos P0) (= a0 P2)) (<= a a_1))
  (=> (= pos P4) (and (or (= a0 P1) (= a0 P3)) (not d0)))
  (=> (and (= pos P4) (= a0 P1)) (<= c a))
  (=> (and (= pos P4) (= a0 P3)) (<= a c))
  (=> (= pos_4 P1) (and (= a8 (ite dir_4 P4 P0)) (iff d8 dir_4)))
  (=> (= pos_4 P2) (and (= a8 (ite dir_4 P3 P0)) (iff d8 dir_4)))
  (=> (= pos_4 P3) (and (= a8 (ite dir_4 P4 P2)) (iff d8 dir_4)))
  (=> (= pos_4 P0) (and (or (= a8 P1) (= a8 P2)) d8))
  (=> (and (= pos_4 P0) (= a8 P1)) (<= a_1 a))
  (=> (and (= pos_4 P0) (= a8 P2)) (<= a a_1))
  (=> (= pos_4 P4) (and (or (= a8 P1) (= a8 P3)) (not d8)))
  (=> (and (= pos_4 P4) (= a8 P1)) (<= c a))
  (=> (and (= pos_4 P4) (= a8 P3)) (<= a c))
  (=> (= pos_1 P1) (and (= a4 (ite dir_1 P4 P0)) (iff d4 dir_1)))
  (=> (= pos_1 P2) (and (= a4 (ite dir_1 P3 P0)) (iff d4 dir_1)))
  (=> (= pos_1 P3) (and (= a4 (ite dir_1 P4 P2)) (iff d4 dir_1)))
  (=> (= pos_1 P0) (and (or (= a4 P1) (= a4 P2)) d4))
  (=> (and (= pos_1 P0) (= a4 P1)) (<= a_1 a))
  (=> (and (= pos_1 P0) (= a4 P2)) (<= a a_1))
  (=> (= pos_1 P4) (and (or (= a4 P1) (= a4 P3)) (not d4)))
  (=> (and (= pos_1 P4) (= a4 P1)) (<= c a))
  (=> (and (= pos_1 P4) (= a4 P3)) (<= a c))
  (=> (= pos_2 P1) (and (= a2 (ite dir_2 P4 P0)) (iff d2 dir_2)))
  (=> (= pos_2 P2) (and (= a2 (ite dir_2 P3 P0)) (iff d2 dir_2)))
  (=> (= pos_2 P3) (and (= a2 (ite dir_2 P4 P2)) (iff d2 dir_2)))
  (=> (= pos_2 P0) (and (or (= a2 P1) (= a2 P2)) d2))
  (=> (and (= pos_2 P0) (= a2 P1)) (<= a_1 a))
  (=> (and (= pos_2 P0) (= a2 P2)) (<= a a_1))
  (=> (= pos_2 P4) (and (or (= a2 P1) (= a2 P3)) (not d2)))
  (=> (and (= pos_2 P4) (= a2 P1)) (<= c a))
  (=> (and (= pos_2 P4) (= a2 P3)) (<= a c))
  (=> (= pos_3 P1) (and (= a6 (ite dir_3 P4 P0)) (iff d6 dir_3)))
  (=> (= pos_3 P2) (and (= a6 (ite dir_3 P3 P0)) (iff d6 dir_3)))
  (=> (= pos_3 P3) (and (= a6 (ite dir_3 P4 P2)) (iff d6 dir_3)))
  (=> (= pos_3 P0) (and (or (= a6 P1) (= a6 P2)) d6))
  (=> (and (= pos_3 P0) (= a6 P1)) (<= a_1 a))
  (=> (and (= pos_3 P0) (= a6 P2)) (<= a a_1))
  (=> (= pos_3 P4) (and (or (= a6 P1) (= a6 P3)) (not d6)))
  (=> (and (= pos_3 P4) (= a6 P1)) (<= c a))
  (=> (and (= pos_3 P4) (= a6 P3)) (<= a c))
  (=> (= pos_5 P1) (and (= a1 (ite dir_5 P4 P0)) (iff d1 dir_5)))
  (=> (= pos_5 P2) (and (= a1 (ite dir_5 P3 P0)) (iff d1 dir_5)))
  (=> (= pos_5 P3) (and (= a1 (ite dir_5 P4 P2)) (iff d1 dir_5)))
  (=> (= pos_5 P0) (and (or (= a1 P1) (= a1 P2)) d1))
  (=> (and (= pos_5 P0) (= a1 P1)) (<= a_1 a))
  (=> (and (= pos_5 P0) (= a1 P2)) (<= a a_1))
  (=> (= pos_5 P4) (and (or (= a1 P1) (= a1 P3)) (not d1)))
  (=> (and (= pos_5 P4) (= a1 P1)) (<= c a))
  (=> (and (= pos_5 P4) (= a1 P3)) (<= a c))
  (=> (= pos_9 P1) (and (= a9 (ite dir_9 P4 P0)) (iff d9 dir_9)))
  (=> (= pos_9 P2) (and (= a9 (ite dir_9 P3 P0)) (iff d9 dir_9)))
  (=> (= pos_9 P3) (and (= a9 (ite dir_9 P4 P2)) (iff d9 dir_9)))
  (=> (= pos_9 P0) (and (or (= a9 P1) (= a9 P2)) d9))
  (=> (and (= pos_9 P0) (= a9 P1)) (<= a_1 a))
  (=> (and (= pos_9 P0) (= a9 P2)) (<= a a_1))
  (=> (= pos_9 P4) (and (or (= a9 P1) (= a9 P3)) (not d9)))
  (=> (and (= pos_9 P4) (= a9 P1)) (<= c a))
  (=> (and (= pos_9 P4) (= a9 P3)) (<= a c))
  (=> (= pos_6 P1) (and (= a5 (ite dir_6 P4 P0)) (iff d5 dir_6)))
  (=> (= pos_6 P2) (and (= a5 (ite dir_6 P3 P0)) (iff d5 dir_6)))
  (=> (= pos_6 P3) (and (= a5 (ite dir_6 P4 P2)) (iff d5 dir_6)))
  (=> (= pos_6 P0) (and (or (= a5 P1) (= a5 P2)) d5))
  (=> (and (= pos_6 P0) (= a5 P1)) (<= a_1 a))
  (=> (and (= pos_6 P0) (= a5 P2)) (<= a a_1))
  (=> (= pos_6 P4) (and (or (= a5 P1) (= a5 P3)) (not d5)))
  (=> (and (= pos_6 P4) (= a5 P1)) (<= c a))
  (=> (and (= pos_6 P4) (= a5 P3)) (<= a c))
  (=> (= pos_7 P1) (and (= a3 (ite dir_7 P4 P0)) (iff d3 dir_7)))
  (=> (= pos_7 P2) (and (= a3 (ite dir_7 P3 P0)) (iff d3 dir_7)))
  (=> (= pos_7 P3) (and (= a3 (ite dir_7 P4 P2)) (iff d3 dir_7)))
  (=> (= pos_7 P0) (and (or (= a3 P1) (= a3 P2)) d3))
  (=> (and (= pos_7 P0) (= a3 P1)) (<= a_1 a))
  (=> (and (= pos_7 P0) (= a3 P2)) (<= a a_1))
  (=> (= pos_7 P4) (and (or (= a3 P1) (= a3 P3)) (not d3)))
  (=> (and (= pos_7 P4) (= a3 P1)) (<= c a))
  (=> (and (= pos_7 P4) (= a3 P3)) (<= a c))
  (=> (= pos_8 P1) (and (= a7 (ite dir_8 P4 P0)) (iff d7 dir_8)))
  (=> (= pos_8 P2) (and (= a7 (ite dir_8 P3 P0)) (iff d7 dir_8)))
  (=> (= pos_8 P3) (and (= a7 (ite dir_8 P4 P2)) (iff d7 dir_8)))
  (=> (= pos_8 P0) (and (or (= a7 P1) (= a7 P2)) d7))
  (=> (and (= pos_8 P0) (= a7 P1)) (<= a_1 a))
  (=> (and (= pos_8 P0) (= a7 P2)) (<= a a_1))
  (=> (= pos_8 P4) (and (or (= a7 P1) (= a7 P3)) (not d7)))
  (=> (and (= pos_8 P4) (= a7 P1)) (<= c a))
  (=> (and (= pos_8 P4) (= a7 P3)) (<= a c))))
(check-sat)
(get-value
 (a a_1 a_2 a_3 a_4 a_5 a_6 a_7 a0 a1 a2 a3 a4 a5 a6 a7 a8 a9 c c_1 c_2 c_3
  d0 d1 d2 d3 d4 d5 d6 d7 d8 d9 dir dir_1 dir_2 dir_3 dir_4 dir_5 dir_6 dir_7
  dir_8 dir_9 dir_10 dir_11 dir_12 dir_13 dir_14 dir_15 dir_16 dir_17 dir_18
  dir_19 dir_20 dir_21 dir_22 dir_23 dir_24 dir_25 dir_26 dir_27 dir_28
  dir_29 dir_30 dir_31 dir_32 dir_33 dir_34 dir_35 dir_36 dir_37 dir_38
  dir_39 pos pos_1 pos_2 pos_3 pos_4 pos_5 pos_6 pos_7 pos_8 pos_9 pos_10
  pos_11 pos_12 pos_13 pos_14 pos_15 pos_16 pos_17 pos_18 pos_19 pos_20
  pos_21 pos_22 pos_23 pos_24 pos_25 pos_26 pos_27 pos_28 pos_29 pos_30
  pos_31 pos_32 pos_33 pos_34 pos_35 pos_36 pos_37 pos_38 pos_39 s1 s2 s3))
